s td 142 12 168
b 1 1 4 6
b 2 2 3 5
b 3 3 5 59
b 4 4 6 60
b 5 5 19 59
b 6 6 20 60
b 7 7 10 12
b 8 8 9 11
b 9 9 11 53
b 10 10 12 54
b 11 11 53 107
b 12 12 54 108
b 13 39 42 44
b 14 40 41 43
b 15 41 43 79
b 16 42 44 80
b 17 43 73 79
b 18 44 74 80
b 19 85 88 90
b 20 86 87 89
b 21 87 89 119
b 22 88 90 120
b 23 89 95 119
b 24 90 96 120
b 25 13 16 17 22 31 59 61 62 117 163 164 166
b 26 14 16 17 22 59
b 27 14 16 19 59
b 28 13 16 17 31 59 60 61 62 117 163 164 166
b 29 13 16 17 21 60 117
b 30 13 15 17 21 60
b 31 13 15 20 60
b 32 13 16 17 31 59 60 61 62 162 163 164 166
b 33 13 16 18 162
b 34 17 31 59 60 61 62 162 163 164 165 166
b 35 17 59 60 61 62 161 162 163 164 165 166
b 36 59 60 61 62 161 162 163 164 165 166 168
b 37 56 59 60 61 62 168
b 38 56 60 62 64 168
b 39 55 60 62 64
b 40 153 162 164 166 168
b 41 154 161 163 166 168
b 42 155 161 164 165 168
b 43 156 162 163 165 168
b 44 59 60 61 62 161 162 163 164 165 166 167
b 45 57 59 60 61 62 167
b 46 57 60 61 63 167
b 47 58 60 61 63
b 48 157 161 164 166 167
b 49 158 162 163 166 167
b 50 159 162 164 165 167
b 51 160 161 163 165 167
b 52 22 31 33 34 51 52 61 62 117 163 164 166
b 53 31 33 34 51 52 61 62 74 79 81 82 166
b 54 31 33 34 61 62 73 74 79 81 82 166
b 55 31 33 34 61 62 72 73 74 81 82 166
b 56 31 33 34 61 71 72 73 74 81 82 166
b 57 31 33 34 38 71 72 73 74 81 82 166
b 58 31 33 34 37 38 71 72 73 74 81 166
b 59 31 32 33 34 37 38 71 72 73 74 166
b 60 31 32 33 34 36 37 38 71 72 73 74
b 61 23 32 34 36 38
b 62 24 31 33 36 38
b 63 27 31 34 36 37
b 64 28 32 33 36 37
b 65 36 70 71 72 73 74
b 66 65 70 72 74
b 67 68 70 71 73
b 68 31 32 33 34 37 38 66 71 72 73 74
b 69 31 32 33 34 35 37 38 66 72 73
b 70 25 31 34 35 38
b 71 26 32 33 35 38
b 72 29 32 34 35 37
b 73 30 31 33 35 37
b 74 35 66 69 72 73
b 75 67 69 72 73
b 76 51 52 74 79 80 81 82
b 77 52 75 79 80 81 82
b 78 52 75 79 81 84
b 79 76 79 81 84
b 80 51 77 79 80 81 82
b 81 51 77 78 80 81
b 82 51 77 78 83
b 83 22 33 34 51 52 97 110 117 134 145 163 164
b 84 33 34 51 52 53 97 108 110 134 145 147 148
b 85 51 52 53 54 108 147 148
b 86 45 51 52 53 54 148
b 87 45 48 51 53 148
b 88 45 48 50 148
b 89 49 51 52 53 54 147
b 90 46 49 51 54
b 91 47 49 52 53
b 92 33 34 53 97 108 110 134 145 147 148 150
b 93 33 53 97 108 110 134 145 147 148 149 150
b 94 53 97 108 110 134 145 146 147 148 149 150
b 95 53 97 108 109 110 145 146 147 148 149 150
b 96 53 107 108 109 110 145 146 147 148 149 150
b 97 101 107 108 109 110 145 146 147 148 149 150
b 98 101 104 107 109 145 146 147 148 149 150
b 99 101 104 106 145 146 147 148 149 150
b 100 106 145 146 147 148 149 150 152
b 101 137 146 148 150 152
b 102 138 145 147 150 152
b 103 139 145 148 149 152
b 104 140 146 147 149 152
b 105 102 107 108 109 110 145 146 147 148 149 150
b 106 102 108 109 145 146 147 148 149 150 151
b 107 102 103 108 109 151
b 108 102 103 105 151
b 109 141 145 148 150 151
b 110 142 146 147 150 151
b 111 143 146 148 149 151
b 112 144 145 147 149 151
b 113 22 97 110 117 119 120 134 135 136 145 163 164
b 114 97 98 110 119 120 135 136
b 115 96 97 98 119 120 135 136
b 116 95 96 97 98 119 135 136
b 117 91 95 96 97 98 136
b 118 91 95 97 100 136
b 119 92 95 97 100
b 120 93 95 96 97 98 135
b 121 93 96 97 99 135
b 122 94 96 97 99
b 123 22 117 119 120 133 134 135 136 145 163 164
b 124 22 117 119 120 132 133 134 135 136 163 164
b 125 22 117 119 120 131 132 133 134 135 136 163
b 126 22 117 118 119 120 131 132 133 134 135 136
b 127 116 117 118 119 120 131 132 133 134 135 136
b 128 111 116 118 120
b 129 114 116 117 119
b 130 116 130 131 132 133 134 135 136
b 131 121 130 132 134 136
b 132 124 130 131 133 136
b 133 126 130 131 134 135
b 134 127 130 132 133 135
b 135 115 117 118 119 120 131 132 133 134 135 136
b 136 112 115 117 120
b 137 113 115 118 119
b 138 115 129 131 132 133 134 135 136
b 139 122 129 131 134 136
b 140 123 129 132 133 136
b 141 125 129 132 134 135
b 142 128 129 131 133 135
1 4
2 3
3 5
4 6
5 27
6 31
7 10
8 9
9 11
10 12
11 96
12 85
13 16
14 15
15 17
16 18
17 54
18 76
19 22
20 21
21 23
22 24
23 116
24 115
25 26
25 28
25 52
26 27
28 29
28 32
29 30
30 31
32 33
32 34
34 35
35 36
35 44
36 37
36 40
36 41
36 42
36 43
37 38
38 39
44 45
44 48
44 49
44 50
44 51
45 46
46 47
52 53
52 83
53 54
53 76
54 55
55 56
56 57
57 58
58 59
59 60
59 68
60 61
60 62
60 63
60 64
60 65
65 66
65 67
68 69
69 70
69 71
69 72
69 73
69 74
74 75
76 77
76 80
77 78
78 79
80 81
81 82
83 84
83 113
84 85
84 92
85 86
85 89
86 87
87 88
89 90
89 91
92 93
93 94
94 95
95 96
96 97
96 105
97 98
98 99
99 100
100 101
100 102
100 103
100 104
105 106
106 107
106 109
106 110
106 111
106 112
107 108
113 114
113 123
114 115
115 116
116 117
116 120
117 118
118 119
120 121
121 122
123 124
124 125
125 126
126 127
126 135
127 128
127 129
127 130
130 131
130 132
130 133
130 134
135 136
135 137
135 138
138 139
138 140
138 141
138 142
